K-Spacing Value to Generate K-Mesh: 0.020
0
M 
3 3 3
0.0  0.0  0.0
